\ This file has been generated by DOcplex
\ ENCODING=ISO-8859-1
\Problem name: 2generals problem

Maximize
 obj: - 6.537764647957 aj_u0_x0 - 13.937741055309 aj_u1_x0
      - 13.937741055309 aj_u2_x0 - 6.437741055309 aj_u3_x0
      - 10.690305594173 aj_u0_x1 - 13.937741055309 aj_u1_x1
      - 13.937741055309 aj_u2_x1 - 18.937741055309 aj_u3_x1
Subject To
 c1: 13.075529295913 aj_u0_x0 + 27.875482110619 aj_u1_x0
     + 27.875482110619 aj_u2_x0 + 12.875482110619 aj_u3_x0
     - 13.075529295913 a0_u0 - 27.875482110619 a0_u1 >= 0
 c2: 13.075529295913 aj_u0_x0 + 27.875482110619 aj_u1_x0
     + 27.875482110619 aj_u2_x0 + 12.875482110619 aj_u3_x0
     - 27.875482110619 a0_u0 - 12.875482110619 a0_u1 >= 0
 c3: 21.380611188345 aj_u0_x1 + 27.875482110619 aj_u1_x1
     + 27.875482110619 aj_u2_x1 + 37.875482110619 aj_u3_x1
     - 21.380611188345 a0_u0 - 27.875482110619 a0_u1 >= 0
 c4: 21.380611188345 aj_u0_x1 + 27.875482110619 aj_u1_x1
     + 27.875482110619 aj_u2_x1 + 37.875482110619 aj_u3_x1
     - 27.875482110619 a0_u0 - 37.875482110619 a0_u1 >= 0
 c5: a0_u0 + a0_u1 = 1
 c6: a1_u0_x0 + a1_u1_x0 = 1
 c7: aj_u0_x0 + aj_u1_x0 + aj_u2_x0 + aj_u3_x0 = 1
 c8: a1_u0_x1 + a1_u1_x1 = 1
 c9: aj_u0_x1 + aj_u1_x1 + aj_u2_x1 + aj_u3_x1 = 1
 c10: aj_u0_x0 + aj_u1_x0 - a0_u0 = 0
 c11: aj_u2_x0 + aj_u3_x0 - a0_u1 = 0
 c12: aj_u0_x1 + aj_u1_x1 - a0_u0 = 0
 c13: aj_u2_x1 + aj_u3_x1 - a0_u1 = 0
 c14: aj_u0_x0 + aj_u2_x0 - a1_u0_x0 = 0
 c15: aj_u1_x0 + aj_u3_x0 - a1_u1_x0 = 0
 c16: aj_u0_x1 + aj_u2_x1 - a1_u0_x1 = 0
 c17: aj_u1_x1 + aj_u3_x1 - a1_u1_x1 = 0

Bounds
       a0_u0 <= 1
       a0_u1 <= 1
 0 <= a1_u0_x0 <= 1
 0 <= a1_u1_x0 <= 1
       aj_u0_x0 <= 1
       aj_u1_x0 <= 1
       aj_u2_x0 <= 1
       aj_u3_x0 <= 1
 0 <= a1_u0_x1 <= 1
 0 <= a1_u1_x1 <= 1
       aj_u0_x1 <= 1
       aj_u1_x1 <= 1
       aj_u2_x1 <= 1
       aj_u3_x1 <= 1

Binaries
 a1_u0_x0 a1_u1_x0 a1_u0_x1 a1_u1_x1
End
